letting n =  10
letting blocks =  [[1, 5], [1, 9], [1, 10], [2, 3], [2, 5], [2, 8], [2, 9], [2, 10], [3, 2], [3, 4], [3, 6], [3, 9], [4, 1], [4, 3], [5, 4], [5, 8], [5, 10], [6, 1], [6, 2], [6, 4], [6, 9], [6, 10], [8, 1], [8, 3], [9, 5], [9, 8], [9, 10], [10, 2]]
